clingo version 4.5.4
Reading from rules-mk3.lp ...
Solving...
Answer: 1
better_color(green,red) opposed_color(red,green) opposed_color(blue,yellow)
opposed_color(white,black) connotation(red,warm) connotation(orange,warm)
connotation(yellow,warm) connotation(green,cool) connotation(blue,cool)
connotation(purple,cool) connotation(green,natural)
connotation(brown,natural) connotation(gray,manmade)
connotation(black,manmade) connotation(white,manmade) connotation(red,stop)
connotation(green,go) connotation(black,evil) connotation(white,good)
connotation(red,danger) connotation(orange,danger)
connotation(yellow,danger) connotation(black,danger) better_than(good,evil)
better_than(natural,manmade) entity(ball) entity(paddle_player)
entity(paddle_computer) singular(ball) singular(paddle_player)
singular(paddle_computer) resource(score_player) resource(score_computer)
resource(player_start) resource(computer_start)
precondition(eq(player_start,true),player_serve)
precondition(control_event(space,pressed),player_serve)
result(player_serve,set(player_serve,false))
result(player_serve,apply_impulse(ball,vector(north_east)))
precondition(eq(computer_start,true),computer_serve)
result(computer_serve,set(computer_serve,false))
result(computer_serve,apply_impulse(ball,vector(north_west)))
precondition(control_event(up_arrow,held),move_up)
result(move_up,moves(paddle_player,north,low))
precondition(control_event(down_arrow,held),move_down)
result(move_down,moves(paddle_player,south,low))
precondition(above(paddle_computer,ball),move_up_computer)
result(move_up_computer,moves(paddle_computer,north,low))
precondition(below(paddle_computer,ball),move_down_computer)
result(move_down_computer,moves(paddle_computer,south,low))
precondition(overlaps(ball,screen_left),computer_score)
result(computer_score,set(player_serve,true))
result(computer_score,increase(score_computer,low))
precondition(overlaps(ball,paddle_computer),computer_hit)
result(computer_hit,reflect_velocity(ball,collision_normal(ball,paddle_computer)))
precondition(overlaps(ball,paddle_player),player_hit)
result(player_hit,reflect_velocity(ball,collision_normal(ball,player_hit)))
precondition(overlaps(ball,screen_right),player_score)
result(player_score,set(player_serve,true))
result(player_score,increase(score_player,low))
precondition(ge(score_player,high),win) result(win,mode_change(game_win))
precondition(ge(score_computer,high),lose)
result(lose,mode_change(game_loss)) goodResult(mode_change(game_win))
badResult(mode_change(game_end)) badResult(mode_change(game_loss))
unrestrictedCondition(tick) color(red) color(orange) color(yellow)
color(green) color(blue) color(purple) color(pink) color(brown)
luminance(white) luminance(gray) luminance(black) bright(white) bright(red)
bright(yellow) bright(green) bright(pink) dark(gray) dark(black) dark(blue)
dark(purple) dark(brown) entity(screen_top) entity(screen_left)
entity(screen_bottom) entity(screen_right) timingBasedPhysics(spring)
timingBasedPhysics(pendulum) timingBasedPhysics(chase)
timingBasedPhysics(random) timingBasedPhysics(random_chase)
timingBasedPhysics(flee) timingBasedPhysics(random_flee) threshold(mid)
threshold(high) threshold(low) better_color(red,gray)
better_color(orange,gray) better_color(yellow,gray)
better_color(green,gray) better_color(blue,gray) better_color(purple,gray)
better_color(pink,gray) better_color(brown,gray) better_color(red,black)
better_color(orange,black) better_color(yellow,black)
better_color(green,black) better_color(blue,black)
better_color(purple,black) better_color(pink,black)
better_color(brown,black) opposed_color(green,red)
opposed_color(yellow,blue) opposed_color(black,white)
threshold(score_player) threshold(score_computer) threshold(player_start)
threshold(computer_start)
lowThreshold(lt(score_player,mid),score_player,mid)
lowThreshold(lt(score_player,high),score_player,high)
lowThreshold(lt(score_player,low),score_player,low)
lowThreshold(lt(score_player,score_player),score_player,score_player)
lowThreshold(lt(score_player,score_computer),score_player,score_computer)
lowThreshold(lt(score_player,player_start),score_player,player_start)
lowThreshold(lt(score_player,computer_start),score_player,computer_start)
lowThreshold(lt(score_computer,mid),score_computer,mid)
lowThreshold(lt(score_computer,high),score_computer,high)
lowThreshold(lt(score_computer,low),score_computer,low)
lowThreshold(lt(score_computer,score_player),score_computer,score_player)
lowThreshold(lt(score_computer,score_computer),score_computer,score_computer)
lowThreshold(lt(score_computer,player_start),score_computer,player_start)
lowThreshold(lt(score_computer,computer_start),score_computer,computer_start)
lowThreshold(lt(player_start,mid),player_start,mid)
lowThreshold(lt(player_start,high),player_start,high)
lowThreshold(lt(player_start,low),player_start,low)
lowThreshold(lt(player_start,score_player),player_start,score_player)
lowThreshold(lt(player_start,score_computer),player_start,score_computer)
lowThreshold(lt(player_start,player_start),player_start,player_start)
lowThreshold(lt(player_start,computer_start),player_start,computer_start)
lowThreshold(lt(computer_start,mid),computer_start,mid)
lowThreshold(lt(computer_start,high),computer_start,high)
lowThreshold(lt(computer_start,low),computer_start,low)
lowThreshold(lt(computer_start,score_player),computer_start,score_player)
lowThreshold(lt(computer_start,score_computer),computer_start,score_computer)
lowThreshold(lt(computer_start,player_start),computer_start,player_start)
lowThreshold(lt(computer_start,computer_start),computer_start,computer_start)
lowThreshold(le(score_player,mid),score_player,mid)
lowThreshold(le(score_player,high),score_player,high)
lowThreshold(le(score_player,low),score_player,low)
lowThreshold(le(score_player,score_player),score_player,score_player)
lowThreshold(le(score_player,score_computer),score_player,score_computer)
lowThreshold(le(score_player,player_start),score_player,player_start)
lowThreshold(le(score_player,computer_start),score_player,computer_start)
lowThreshold(le(score_computer,mid),score_computer,mid)
lowThreshold(le(score_computer,high),score_computer,high)
lowThreshold(le(score_computer,low),score_computer,low)
lowThreshold(le(score_computer,score_player),score_computer,score_player)
lowThreshold(le(score_computer,score_computer),score_computer,score_computer)
lowThreshold(le(score_computer,player_start),score_computer,player_start)
lowThreshold(le(score_computer,computer_start),score_computer,computer_start)
lowThreshold(le(player_start,mid),player_start,mid)
lowThreshold(le(player_start,high),player_start,high)
lowThreshold(le(player_start,low),player_start,low)
lowThreshold(le(player_start,score_player),player_start,score_player)
lowThreshold(le(player_start,score_computer),player_start,score_computer)
lowThreshold(le(player_start,player_start),player_start,player_start)
lowThreshold(le(player_start,computer_start),player_start,computer_start)
lowThreshold(le(computer_start,mid),computer_start,mid)
lowThreshold(le(computer_start,high),computer_start,high)
lowThreshold(le(computer_start,low),computer_start,low)
lowThreshold(le(computer_start,score_player),computer_start,score_player)
lowThreshold(le(computer_start,score_computer),computer_start,score_computer)
lowThreshold(le(computer_start,player_start),computer_start,player_start)
lowThreshold(le(computer_start,computer_start),computer_start,computer_start)
highThreshold(gt(score_player,mid),score_player,mid)
highThreshold(gt(score_player,high),score_player,high)
highThreshold(gt(score_player,low),score_player,low)
highThreshold(gt(score_player,score_player),score_player,score_player)
highThreshold(gt(score_player,score_computer),score_player,score_computer)
highThreshold(gt(score_player,player_start),score_player,player_start)
highThreshold(gt(score_player,computer_start),score_player,computer_start)
highThreshold(gt(score_computer,mid),score_computer,mid)
highThreshold(gt(score_computer,high),score_computer,high)
highThreshold(gt(score_computer,low),score_computer,low)
highThreshold(gt(score_computer,score_player),score_computer,score_player)
highThreshold(gt(score_computer,score_computer),score_computer,score_computer)
highThreshold(gt(score_computer,player_start),score_computer,player_start)
highThreshold(gt(score_computer,computer_start),score_computer,computer_start)
highThreshold(gt(player_start,mid),player_start,mid)
highThreshold(gt(player_start,high),player_start,high)
highThreshold(gt(player_start,low),player_start,low)
highThreshold(gt(player_start,score_player),player_start,score_player)
highThreshold(gt(player_start,score_computer),player_start,score_computer)
highThreshold(gt(player_start,player_start),player_start,player_start)
highThreshold(gt(player_start,computer_start),player_start,computer_start)
highThreshold(gt(computer_start,mid),computer_start,mid)
highThreshold(gt(computer_start,high),computer_start,high)
highThreshold(gt(computer_start,low),computer_start,low)
highThreshold(gt(computer_start,score_player),computer_start,score_player)
highThreshold(gt(computer_start,score_computer),computer_start,score_computer)
highThreshold(gt(computer_start,player_start),computer_start,player_start)
highThreshold(gt(computer_start,computer_start),computer_start,computer_start)
highThreshold(ge(score_player,mid),score_player,mid)
highThreshold(ge(score_player,high),score_player,high)
highThreshold(ge(score_player,low),score_player,low)
highThreshold(ge(score_player,score_player),score_player,score_player)
highThreshold(ge(score_player,score_computer),score_player,score_computer)
highThreshold(ge(score_player,player_start),score_player,player_start)
highThreshold(ge(score_player,computer_start),score_player,computer_start)
highThreshold(ge(score_computer,mid),score_computer,mid)
highThreshold(ge(score_computer,high),score_computer,high)
highThreshold(ge(score_computer,low),score_computer,low)
highThreshold(ge(score_computer,score_player),score_computer,score_player)
highThreshold(ge(score_computer,score_computer),score_computer,score_computer)
highThreshold(ge(score_computer,player_start),score_computer,player_start)
highThreshold(ge(score_computer,computer_start),score_computer,computer_start)
highThreshold(ge(player_start,mid),player_start,mid)
highThreshold(ge(player_start,high),player_start,high)
highThreshold(ge(player_start,low),player_start,low)
highThreshold(ge(player_start,score_player),player_start,score_player)
highThreshold(ge(player_start,score_computer),player_start,score_computer)
highThreshold(ge(player_start,player_start),player_start,player_start)
highThreshold(ge(player_start,computer_start),player_start,computer_start)
highThreshold(ge(computer_start,mid),computer_start,mid)
highThreshold(ge(computer_start,high),computer_start,high)
highThreshold(ge(computer_start,low),computer_start,low)
highThreshold(ge(computer_start,score_player),computer_start,score_player)
highThreshold(ge(computer_start,score_computer),computer_start,score_computer)
highThreshold(ge(computer_start,player_start),computer_start,player_start)
highThreshold(ge(computer_start,computer_start),computer_start,computer_start)
goal(achieve(win)) humanAffected(player_serve) humanAffected(move_up)
humanAffected(move_down) playerAgency(paddle_player)
humanControlled(paddle_player) condition(eq(player_start,true))
condition(control_event(space,pressed)) condition(eq(computer_start,true))
condition(control_event(up_arrow,held))
condition(control_event(down_arrow,held))
condition(above(paddle_computer,ball))
condition(below(paddle_computer,ball))
condition(overlaps(ball,screen_left))
condition(overlaps(ball,paddle_computer))
condition(overlaps(ball,paddle_player))
condition(overlaps(ball,screen_right)) condition(ge(score_player,high))
condition(ge(score_computer,high))
result_enables_condition(increase(score_player),gt(score_player,mid))
result_enables_condition(increase(score_player),gt(score_player,high))
result_enables_condition(increase(score_player),gt(score_player,low))
result_enables_condition(increase(score_player),gt(score_player,score_player))
result_enables_condition(increase(score_player),gt(score_player,score_computer))
result_enables_condition(increase(score_player),gt(score_player,player_start))
result_enables_condition(increase(score_player),gt(score_player,computer_start))
result_enables_condition(increase(score_computer),gt(score_computer,mid))
result_enables_condition(increase(score_computer),gt(score_computer,high))
result_enables_condition(increase(score_computer),gt(score_computer,low))
result_enables_condition(increase(score_computer),gt(score_computer,score_player))
result_enables_condition(increase(score_computer),gt(score_computer,score_computer))
result_enables_condition(increase(score_computer),gt(score_computer,player_start))
result_enables_condition(increase(score_computer),gt(score_computer,computer_start))
result_enables_condition(increase(player_start),gt(player_start,mid))
result_enables_condition(increase(player_start),gt(player_start,high))
result_enables_condition(increase(player_start),gt(player_start,low))
result_enables_condition(increase(player_start),gt(player_start,score_player))
result_enables_condition(increase(player_start),gt(player_start,score_computer))
result_enables_condition(increase(player_start),gt(player_start,player_start))
result_enables_condition(increase(player_start),gt(player_start,computer_start))
result_enables_condition(increase(computer_start),gt(computer_start,mid))
result_enables_condition(increase(computer_start),gt(computer_start,high))
result_enables_condition(increase(computer_start),gt(computer_start,low))
result_enables_condition(increase(computer_start),gt(computer_start,score_player))
result_enables_condition(increase(computer_start),gt(computer_start,score_computer))
result_enables_condition(increase(computer_start),gt(computer_start,player_start))
result_enables_condition(increase(computer_start),gt(computer_start,computer_start))
result_enables_condition(increase(score_player),ge(score_player,mid))
result_enables_condition(increase(score_player),ge(score_player,high))
result_enables_condition(increase(score_player),ge(score_player,low))
result_enables_condition(increase(score_player),ge(score_player,score_player))
result_enables_condition(increase(score_player),ge(score_player,score_computer))
result_enables_condition(increase(score_player),ge(score_player,player_start))
result_enables_condition(increase(score_player),ge(score_player,computer_start))
result_enables_condition(increase(score_computer),ge(score_computer,mid))
result_enables_condition(increase(score_computer),ge(score_computer,high))
result_enables_condition(increase(score_computer),ge(score_computer,low))
result_enables_condition(increase(score_computer),ge(score_computer,score_player))
result_enables_condition(increase(score_computer),ge(score_computer,score_computer))
result_enables_condition(increase(score_computer),ge(score_computer,player_start))
result_enables_condition(increase(score_computer),ge(score_computer,computer_start))
result_enables_condition(increase(player_start),ge(player_start,mid))
result_enables_condition(increase(player_start),ge(player_start,high))
result_enables_condition(increase(player_start),ge(player_start,low))
result_enables_condition(increase(player_start),ge(player_start,score_player))
result_enables_condition(increase(player_start),ge(player_start,score_computer))
result_enables_condition(increase(player_start),ge(player_start,player_start))
result_enables_condition(increase(player_start),ge(player_start,computer_start))
result_enables_condition(increase(computer_start),ge(computer_start,mid))
result_enables_condition(increase(computer_start),ge(computer_start,high))
result_enables_condition(increase(computer_start),ge(computer_start,low))
result_enables_condition(increase(computer_start),ge(computer_start,score_player))
result_enables_condition(increase(computer_start),ge(computer_start,score_computer))
result_enables_condition(increase(computer_start),ge(computer_start,player_start))
result_enables_condition(increase(computer_start),ge(computer_start,computer_start))
result_enables_condition(decrease(score_player),lt(score_player,mid))
result_enables_condition(decrease(score_player),lt(score_player,high))
result_enables_condition(decrease(score_player),lt(score_player,low))
result_enables_condition(decrease(score_player),lt(score_player,score_player))
result_enables_condition(decrease(score_player),lt(score_player,score_computer))
result_enables_condition(decrease(score_player),lt(score_player,player_start))
result_enables_condition(decrease(score_player),lt(score_player,computer_start))
result_enables_condition(decrease(score_computer),lt(score_computer,mid))
result_enables_condition(decrease(score_computer),lt(score_computer,high))
result_enables_condition(decrease(score_computer),lt(score_computer,low))
result_enables_condition(decrease(score_computer),lt(score_computer,score_player))
result_enables_condition(decrease(score_computer),lt(score_computer,score_computer))
result_enables_condition(decrease(score_computer),lt(score_computer,player_start))
result_enables_condition(decrease(score_computer),lt(score_computer,computer_start))
result_enables_condition(decrease(player_start),lt(player_start,mid))
result_enables_condition(decrease(player_start),lt(player_start,high))
result_enables_condition(decrease(player_start),lt(player_start,low))
result_enables_condition(decrease(player_start),lt(player_start,score_player))
result_enables_condition(decrease(player_start),lt(player_start,score_computer))
result_enables_condition(decrease(player_start),lt(player_start,player_start))
result_enables_condition(decrease(player_start),lt(player_start,computer_start))
result_enables_condition(decrease(computer_start),lt(computer_start,mid))
result_enables_condition(decrease(computer_start),lt(computer_start,high))
result_enables_condition(decrease(computer_start),lt(computer_start,low))
result_enables_condition(decrease(computer_start),lt(computer_start,score_player))
result_enables_condition(decrease(computer_start),lt(computer_start,score_computer))
result_enables_condition(decrease(computer_start),lt(computer_start,player_start))
result_enables_condition(decrease(computer_start),lt(computer_start,computer_start))
result_enables_condition(decrease(score_player),le(score_player,mid))
result_enables_condition(decrease(score_player),le(score_player,high))
result_enables_condition(decrease(score_player),le(score_player,low))
result_enables_condition(decrease(score_player),le(score_player,score_player))
result_enables_condition(decrease(score_player),le(score_player,score_computer))
result_enables_condition(decrease(score_player),le(score_player,player_start))
result_enables_condition(decrease(score_player),le(score_player,computer_start))
result_enables_condition(decrease(score_computer),le(score_computer,mid))
result_enables_condition(decrease(score_computer),le(score_computer,high))
result_enables_condition(decrease(score_computer),le(score_computer,low))
result_enables_condition(decrease(score_computer),le(score_computer,score_player))
result_enables_condition(decrease(score_computer),le(score_computer,score_computer))
result_enables_condition(decrease(score_computer),le(score_computer,player_start))
result_enables_condition(decrease(score_computer),le(score_computer,computer_start))
result_enables_condition(decrease(player_start),le(player_start,mid))
result_enables_condition(decrease(player_start),le(player_start,high))
result_enables_condition(decrease(player_start),le(player_start,low))
result_enables_condition(decrease(player_start),le(player_start,score_player))
result_enables_condition(decrease(player_start),le(player_start,score_computer))
result_enables_condition(decrease(player_start),le(player_start,player_start))
result_enables_condition(decrease(player_start),le(player_start,computer_start))
result_enables_condition(decrease(computer_start),le(computer_start,mid))
result_enables_condition(decrease(computer_start),le(computer_start,high))
result_enables_condition(decrease(computer_start),le(computer_start,low))
result_enables_condition(decrease(computer_start),le(computer_start,score_player))
result_enables_condition(decrease(computer_start),le(computer_start,score_computer))
result_enables_condition(decrease(computer_start),le(computer_start,player_start))
result_enables_condition(decrease(computer_start),le(computer_start,computer_start))
result_enables(increase(score_player),win)
result_enables(increase(score_computer),lose)
outcome_enables(player_serve,set(player_serve,false))
outcome_enables(player_serve,apply_impulse(ball,vector(north_east)))
outcome_enables(computer_serve,set(computer_serve,false))
outcome_enables(computer_serve,apply_impulse(ball,vector(north_west)))
outcome_enables(move_up,moves(paddle_player,north,low))
outcome_enables(move_down,moves(paddle_player,south,low))
outcome_enables(move_up_computer,moves(paddle_computer,north,low))
outcome_enables(move_down_computer,moves(paddle_computer,south,low))
outcome_enables(computer_score,set(player_serve,true))
outcome_enables(computer_score,increase(score_computer,low))
outcome_enables(computer_hit,reflect_velocity(ball,collision_normal(ball,paddle_computer)))
outcome_enables(player_hit,reflect_velocity(ball,collision_normal(ball,player_hit)))
outcome_enables(player_score,set(player_serve,true))
outcome_enables(player_score,increase(score_player,low))
outcome_enables(win,mode_change(game_win))
outcome_enables(lose,mode_change(game_loss)) goal(prevent(lose))
goal(limit(score_computer)) bad(score_computer)
outcomeAffects(score_computer,computer_score,positive)
outcomeAffects(score_player,player_score,positive) outcome(player_serve)
outcome(computer_serve) outcome(move_up) outcome(move_down)
outcome(move_up_computer) outcome(move_down_computer)
outcome(computer_score) outcome(computer_hit) outcome(player_hit)
outcome(player_score) outcome(win) outcome(lose)
onlyOnePrecondition(computer_serve) onlyOnePrecondition(move_up)
onlyOnePrecondition(move_down) onlyOnePrecondition(move_up_computer)
onlyOnePrecondition(move_down_computer) onlyOnePrecondition(computer_score)
onlyOnePrecondition(computer_hit) onlyOnePrecondition(player_hit)
onlyOnePrecondition(player_score) onlyOnePrecondition(win)
onlyOnePrecondition(lose) entityInfluences(ball,computer_score)
entityInfluences(ball,computer_hit) entityInfluences(ball,player_hit)
entityInfluences(ball,player_score)
entityInfluences(screen_left,computer_score)
entityInfluences(paddle_computer,computer_hit)
entityInfluences(paddle_player,player_hit)
entityInfluences(screen_right,player_score)
entityDetermines(ball,computer_score) entityDetermines(ball,computer_hit)
entityDetermines(ball,player_hit) entityDetermines(ball,player_score)
entityDetermines(screen_left,computer_score)
entityDetermines(paddle_computer,computer_hit)
entityDetermines(paddle_player,player_hit)
entityDetermines(screen_right,player_score) needsHigh(win,score_player)
needsHigh(lose,score_computer) badResult(increase(score_computer,low))
outcomeUnfavorable(lose) outcomeFavorable(win)
outcomeUnfavorable(computer_score) good(score_player) harmful(ball)
harmful(screen_left) outcomeFavorable(player_score)
goodResult(increase(score_player,low)) resourceAffects(score_player,win)
resourceAffects(score_computer,lose) moreThanOnePrecondition(player_serve)
conditionEnables(eq(player_start,true),player_serve)
conditionEnables(control_event(space,pressed),player_serve)
conditionEnables(eq(computer_start,true),computer_serve)
conditionEnables(control_event(up_arrow,held),move_up)
conditionEnables(control_event(down_arrow,held),move_down)
conditionEnables(above(paddle_computer,ball),move_up_computer)
conditionEnables(below(paddle_computer,ball),move_down_computer)
conditionEnables(overlaps(ball,screen_left),computer_score)
conditionEnables(overlaps(ball,paddle_computer),computer_hit)
conditionEnables(overlaps(ball,paddle_player),player_hit)
conditionEnables(overlaps(ball,screen_right),player_score)
conditionEnables(ge(score_player,high),win)
conditionEnables(ge(score_computer,high),lose) goal(relates(win))
goal(relates(lose)) restrictedEntity(ball)
restrictedEntity(paddle_computer) restrictedEntity(screen_top)
restrictedEntity(screen_left) restrictedEntity(screen_bottom)
restrictedEntity(screen_right)
unrestrictedCondition(control_event(space,pressed))
unrestrictedCondition(control_event(up_arrow,held))
unrestrictedCondition(control_event(down_arrow,held))
monotonicallyIncreases(score_computer) monotonicallyIncreases(score_player)
restricted(player_serve) restricted(computer_serve) unrestricted(move_up)
unrestricted(move_down) restricted(move_up_computer)
restricted(move_down_computer) restricted(computer_score)
restricted(computer_hit) restricted(player_hit) restricted(player_score)
restricted(win) restricted(lose) easy(move_up) easy(move_down)
constant(player_start) constant(computer_start)
unrestrictedEntity(paddle_player) amount(low)
entityInfluencesOther(paddle_computer,ball)
entityInfluencesOther(paddle_player,ball)
playerCreatesCondition(control_event(space,pressed))
playerCreatesCondition(control_event(up_arrow,held))
playerCreatesCondition(control_event(down_arrow,held))

playerInfluences(player_serve) playerInfluences(move_up)
playerInfluences(move_down) playerInfluences(player_hit)
systemInfluences(player_serve) systemInfluences(computer_serve)
systemInfluences(move_up_computer) systemInfluences(move_down_computer)
systemInfluences(computer_score) systemInfluences(computer_hit)
systemInfluences(player_hit) systemInfluences(player_score)
systemInfluences(win) systemInfluences(lose) playerDetermines(move_up)

playerDetermines(move_down)
playerWillAttemptToCreate(overlaps(ball,screen_right),player_score)
playerWillAttemptToAvoid(overlaps(ball,screen_left),computer_score)

outcome_costs(win,score_player) 
outcome_costs(lose,score_computer)

SATISFIABLE

Models       : 1     
Calls        : 1
Time         : 0.052s (Solving: 0.00s 1st Model: 0.00s Unsat: 0.00s)
CPU Time     : 0.040s
